c File: instances/38_0.20_3.col
c
c Description: Random graph of size 38 vertices and P(0.2) of edges between any two vertices.
p col 38 703
e 1 5
e 1 6
e 1 25
e 1 29
e 1 35
e 1 38
e 2 3
e 2 8
e 2 16
e 2 22
e 2 25
e 2 29
e 2 30
e 2 36
e 2 37
e 3 7
e 3 12
e 3 20
e 3 23
e 3 27
e 3 31
e 4 8
e 4 9
e 4 13
e 4 16
e 4 25
e 4 28
e 4 29
e 4 31
e 4 34
e 5 11
e 5 14
e 5 15
e 5 25
e 5 29
e 5 30
e 5 36
e 6 13
e 6 20
e 6 28
e 6 32
e 6 35
e 6 36
e 6 37
e 7 16
e 7 18
e 7 19
e 7 23
e 7 24
e 7 28
e 7 33
e 8 9
e 8 17
e 8 33
e 8 37
e 8 38
e 9 10
e 9 22
e 9 24
e 9 25
e 9 29
e 10 17
e 10 28
e 10 32
e 11 15
e 11 21
e 11 35
e 11 38
e 12 16
e 12 17
e 12 33
e 12 38
e 13 14
e 13 15
e 14 24
e 14 26
e 14 30
e 14 33
e 14 35
e 14 36
e 14 38
e 15 19
e 15 26
e 15 28
e 16 20
e 16 24
e 16 29
e 16 34
e 17 34
e 18 23
e 18 26
e 18 31
e 19 25
e 19 28
e 19 29
e 19 34
e 19 36
e 20 25
e 20 34
e 20 36
e 21 32
e 21 34
e 22 24
e 22 31
e 22 32
e 22 34
e 23 27
e 23 33
e 24 26
e 24 30
e 24 31
e 24 32
e 24 35
e 25 26
e 25 27
e 25 31
e 25 32
e 26 32
e 27 31
e 27 32
e 27 34
e 27 37
e 28 30
e 28 31
e 28 37
e 28 38
e 29 31
e 30 33
e 30 37
e 31 34
e 31 36